 200 85 
 19 54 61 73 65 20 43 18 97 3 53 68 
 86 3 56 25 46 44 68 62 55 67 61 46 
 23 83 10 36 85 58 32 72 44 1 78 25 
 17 15 44 53 55 75 89 31 35 5 97 62 
 60 1 65 53 62 46 39 97 17 55 48 99 
 44 96 67 6 73 69 15 92 95 77 74 52 
 85 20 90 34 71 76 69 8 14 11 56 11 
 15 
 33 
 4 5 6 7 8 9 17 19 20 22 27 32 
 42 43 44 46 50 51 57 58 60 63 67 68 
 69 70 71 72 75 76 77 82 85 
 11 
 12 18 26 44 45 48 57 65 67 68 78 
 81 
 1 2 3 4 5 6 7 8 9 10 11 12 
 13 14 15 16 17 18 19 20 21 23 24 25 
 26 27 28 29 30 31 32 33 34 35 36 37 
 38 39 40 41 42 43 44 45 46 47 48 49 
 50 51 52 53 54 55 56 57 58 59 60 61 
 62 63 64 65 67 69 70 71 72 73 74 75 
 76 77 78 79 80 81 82 83 85 
 55 
 1 2 3 6 7 8 9 11 12 13 14 15 
 16 20 21 23 26 27 29 30 31 32 33 38 
 39 43 45 46 49 51 52 54 55 58 59 60 
 61 62 63 65 66 68 69 70 71 73 74 75 
 77 78 79 81 82 84 85 
 12 
 6 17 31 42 55 56 58 68 71 74 80 84 
 13 
 7 17 27 47 48 51 58 61 65 68 69 75 
 76 
 38 
 5 6 7 8 12 14 15 17 18 20 21 24 
 25 27 28 29 30 35 36 37 38 42 44 47 
 51 53 57 61 62 69 71 73 74 77 78 79 
 82 85 
 30 
 1 2 5 9 10 15 16 27 28 31 32 38 
 46 50 51 53 54 57 60 62 63 66 71 72 
 74 77 78 79 81 84 
 37 
 1 2 3 6 9 12 13 18 23 26 27 28 
 30 32 33 34 36 40 41 42 48 50 51 57 
 58 68 69 70 71 74 77 78 79 80 82 83 
 85 
 78 
 1 2 3 4 5 6 7 8 10 11 13 14 
 15 16 17 18 19 20 21 22 23 24 25 27 
 28 29 30 31 32 33 34 35 36 37 39 40 
 42 43 44 45 46 47 48 49 50 51 52 53 
 54 55 56 57 58 59 61 63 64 65 66 67 
 68 69 70 71 72 73 74 75 76 77 78 79 
 80 81 82 83 84 85 
 9 
 2 7 13 31 36 58 73 76 80 
 15 
 4 7 17 22 23 26 28 29 40 47 54 64 
 78 80 84 
 69 
 2 3 4 5 6 7 9 11 12 13 14 15 
 16 17 18 19 20 21 22 24 25 26 27 28 
 29 30 34 35 36 37 38 39 40 42 44 45 
 46 48 50 52 53 56 57 58 59 60 61 62 
 63 64 65 66 68 69 70 71 72 73 74 75 
 76 77 78 79 80 81 82 84 85 
 33 
 5 8 13 16 17 20 23 28 29 36 38 41 
 44 45 46 47 48 49 52 55 56 57 60 67 
 68 69 70 72 73 75 78 80 84 
 48 
 1 2 4 8 10 14 15 16 18 21 22 27 
 28 30 31 32 34 36 38 39 40 41 42 47 
 51 52 53 54 55 56 57 58 62 66 67 68 
 69 70 71 72 73 74 77 78 80 82 83 85 
 83 
 1 2 3 4 5 6 7 8 9 10 11 12 
 13 14 15 16 17 18 19 20 21 22 23 25 
 26 27 28 29 30 31 32 33 34 35 36 37 
 38 39 40 41 42 43 44 45 46 47 48 49 
 50 51 52 53 54 55 56 57 58 59 60 61 
 62 63 64 65 66 67 68 70 71 72 73 74 
 75 76 77 78 79 80 81 82 83 84 85 
 49 
 3 4 6 8 9 11 12 13 18 19 20 24 
 25 26 28 31 33 34 35 36 37 38 39 41 
 44 45 46 49 52 53 56 57 58 61 63 64 
 65 68 69 71 72 74 75 76 77 78 80 83 
 84 
 42 
 3 6 7 8 10 14 15 17 21 23 24 25 
 27 29 31 36 37 39 42 49 50 53 54 55 
 56 60 62 63 65 66 69 70 71 74 75 76 
 77 79 80 81 82 85 
 67 
 1 2 6 7 8 9 10 11 12 13 14 15 
 16 18 19 20 21 22 23 24 26 27 28 29 
 30 32 33 35 36 37 38 39 40 41 43 44 
 45 46 47 48 50 51 52 53 54 55 57 58 
 59 61 63 64 65 66 69 70 71 72 73 74 
 75 76 79 81 82 83 85 
 40 
 3 6 9 10 14 16 19 21 24 25 26 28 
 29 31 35 39 40 46 47 48 50 51 52 53 
 54 55 57 60 61 62 63 67 68 69 74 76 
 77 78 83 85 
 76 
 2 3 4 5 6 7 8 9 10 11 12 13 
 16 17 18 19 20 21 22 23 24 25 26 27 
 28 30 31 32 33 34 35 36 37 38 39 40 
 41 42 43 44 45 46 47 49 50 51 53 54 
 55 56 57 58 59 60 61 62 63 64 65 66 
 68 69 70 71 72 73 74 76 77 78 79 80 
 81 83 84 85 
 70 
 1 2 4 5 7 8 9 10 11 12 13 14 
 15 16 17 18 19 20 21 23 24 25 26 27 
 29 30 31 32 33 35 36 37 38 39 40 41 
 42 43 44 46 47 48 49 50 51 52 53 55 
 56 57 58 59 60 61 62 63 66 69 72 73 
 74 75 76 77 79 80 81 82 84 85 
 47 
 1 3 4 5 7 10 11 12 14 15 18 19 
 21 23 24 26 29 31 33 34 37 38 39 40 
 41 44 45 46 47 48 49 50 53 54 55 56 
 57 58 60 66 67 72 76 77 79 80 83 
 7 
 2 3 10 37 48 83 84 
 58 
 2 3 4 6 7 9 10 12 13 17 18 20 
 23 25 26 28 29 30 31 32 34 36 38 40 
 41 42 43 44 45 46 47 48 49 50 51 53 
 54 55 58 59 60 61 64 67 68 69 70 71 
 72 73 74 75 76 79 80 81 83 84 
 85 
 1 2 3 4 5 6 7 8 9 10 11 12 
 13 14 15 16 17 18 19 20 21 22 23 24 
 25 26 27 28 29 30 31 32 33 34 35 36 
 37 38 39 40 41 42 43 44 45 46 47 48 
 49 50 51 52 53 54 55 56 57 58 59 60 
 61 62 63 64 65 66 67 68 69 70 71 72 
 73 74 75 76 77 78 79 80 81 82 83 84 
 85 
 19 
 4 25 32 33 37 38 39 42 43 46 47 50 
 53 54 58 60 63 76 77 
 69 
 1 4 5 7 9 10 11 14 15 16 17 20 
 21 22 23 24 25 26 27 29 30 31 32 33 
 34 35 37 38 39 40 41 42 43 44 45 46 
 47 48 49 50 51 53 54 55 56 57 59 60 
 61 62 64 65 66 67 68 69 70 71 72 73 
 74 75 76 78 80 81 83 84 85 
 22 
 4 9 11 17 19 21 22 25 26 35 38 41 
 42 46 52 53 69 70 75 76 79 82 
 20 
 1 2 9 11 15 20 23 30 32 38 52 55 
 59 61 65 66 69 72 74 76 
 65 
 1 2 3 4 5 6 9 11 12 13 14 15 
 16 17 18 21 22 23 24 26 27 28 30 31 
 33 34 37 38 39 40 41 42 43 44 45 46 
 47 48 49 50 51 55 56 57 59 60 62 63 
 65 66 67 68 69 70 71 72 73 76 77 78 
 79 81 82 84 85 
 17 
 5 8 16 17 19 31 35 37 40 46 53 58 
 67 72 74 79 82 
 37 
 2 3 6 9 11 13 15 16 21 23 26 27 
 31 32 35 36 39 40 42 46 50 52 53 57 
 58 60 61 63 65 67 75 77 80 81 82 84 
 85 
 18 
 1 8 14 20 25 27 37 40 43 45 46 52 
 54 68 69 70 72 80 
 77 
 1 3 5 6 7 8 10 11 12 13 14 15 
 16 17 19 21 22 23 24 25 26 27 28 29 
 30 31 32 33 34 35 36 37 39 40 41 42 
 43 44 45 46 47 48 49 50 51 52 53 54 
 55 56 57 58 59 60 61 62 63 64 65 66 
 67 68 69 70 71 73 74 75 76 78 79 80 
 81 82 83 84 85 
 46 
 2 3 4 5 6 9 11 12 14 15 17 18 
 19 20 21 23 25 26 31 32 33 34 36 38 
 40 44 45 46 47 53 55 58 59 60 61 63 
 64 67 69 70 71 74 77 82 84 85 
 70 
 1 2 3 4 5 6 7 10 11 12 13 14 
 16 17 18 19 20 21 22 23 24 25 26 27 
 28 29 30 31 33 35 36 37 38 39 40 41 
 42 43 44 45 46 49 51 53 56 57 58 59 
 60 61 62 63 66 67 68 71 72 73 74 75 
 76 77 78 79 80 81 82 83 84 85 
 15 
 6 16 22 23 27 30 31 32 33 35 54 57 
 60 65 84 
 8 
 11 23 35 37 44 45 65 73 
 61 
 1 2 4 5 7 8 9 10 11 15 16 17 
 18 20 21 22 24 25 26 28 29 30 31 32 
 33 36 37 39 40 41 42 43 45 47 49 50 
 52 54 55 56 57 58 59 60 62 66 67 69 
 70 71 72 73 75 76 78 79 80 81 82 83 
 85 
 56 
 1 2 3 4 5 6 7 8 9 11 12 13 
 15 16 17 18 20 21 25 27 29 31 32 33 
 36 37 38 40 41 42 44 45 47 48 51 52 
 54 55 56 57 58 60 61 63 66 67 69 70 
 72 73 74 77 79 80 82 83 
 73 
 3 4 5 6 7 8 9 10 11 12 14 15 
 17 18 19 20 21 22 24 25 26 27 28 29 
 30 33 34 35 36 37 38 39 40 41 42 43 
 44 46 47 48 49 50 51 53 54 55 56 57 
 58 59 60 61 63 64 65 67 68 69 70 71 
 72 73 74 75 76 77 78 79 80 81 83 84 
 85 
 63 
 2 3 4 6 7 9 11 12 13 14 17 19 
 20 24 25 26 27 28 29 30 31 34 35 37 
 38 39 40 41 42 43 44 45 46 47 48 50 
 51 53 54 55 57 58 60 61 62 63 64 65 
 67 68 69 70 71 72 74 75 76 77 79 81 
 82 84 85 
 36 
 2 6 8 15 16 18 20 22 24 25 28 32 
 34 36 38 39 42 50 53 56 58 59 60 61 
 64 65 67 70 74 76 78 80 81 82 83 85 
 34 
 3 4 5 7 13 14 19 23 24 25 28 30 
 31 35 36 37 38 43 49 51 52 53 57 60 
 66 70 71 75 76 77 80 82 84 85 
 52 
 1 2 3 5 7 9 10 11 13 16 17 18 
 19 20 21 22 24 25 26 28 29 30 36 37 
 40 42 43 44 45 48 49 51 52 53 54 58 
 59 62 63 64 67 68 69 70 72 73 75 76 
 79 83 84 85 
 71 
 1 2 3 4 5 6 8 9 10 11 12 14 
 15 16 17 18 19 20 22 23 24 25 27 28 
 30 31 32 33 34 35 36 37 38 39 40 41 
 42 43 44 45 47 48 49 50 51 52 54 55 
 56 57 58 59 60 61 63 64 65 66 67 68 
 69 70 71 72 73 74 75 76 81 82 83 
 23 
 18 19 23 24 25 28 38 39 43 45 48 52 
 55 56 58 67 71 72 73 74 80 82 84 
 55 
 2 5 6 9 10 11 12 13 15 16 17 19 
 20 21 26 28 29 30 32 33 36 37 38 39 
 43 44 46 47 49 52 53 54 55 56 57 59 
 60 61 63 65 66 68 69 70 71 73 75 76 
 77 78 79 80 81 84 85 
 8 
 12 44 49 54 55 61 70 79 
 9 
 7 12 17 18 33 35 45 73 82 
 80 
 1 3 4 5 7 8 9 10 11 13 14 15 
 16 17 18 19 20 21 22 23 24 25 26 27 
 28 29 30 31 32 33 34 35 36 37 38 39 
 40 41 42 43 44 45 46 47 48 49 50 51 
 52 53 54 55 56 57 58 59 60 62 63 64 
 65 66 67 68 69 70 71 72 73 74 75 76 
 77 78 79 80 81 82 83 84 
 5 
 15 18 32 48 77 
 7 
 4 24 25 33 49 51 63 
 21 
 4 15 16 18 27 28 29 34 45 47 49 50 
 51 52 56 57 67 69 73 78 79 
 26 
 2 6 7 8 10 11 15 19 20 24 28 34 
 35 36 43 45 47 52 54 56 57 58 65 72 
 81 82 
 74 
 1 2 3 4 5 7 8 9 11 12 14 16 
 17 18 19 20 21 22 23 24 25 26 27 28 
 29 30 31 32 33 34 35 36 37 38 39 40 
 43 44 45 46 47 48 50 51 52 53 54 57 
 58 59 60 61 62 63 65 66 67 68 69 70 
 71 72 73 74 75 76 77 79 80 81 82 83 
 84 85 
 37 
 3 12 13 15 16 17 19 20 21 22 24 28 
 29 31 32 35 38 39 40 42 43 50 52 56 
 59 60 62 63 64 72 73 74 76 80 82 84 
 85 
 72 
 1 2 3 4 5 6 7 8 10 11 12 13 
 14 16 17 19 20 21 22 23 24 25 26 27 
 28 30 31 32 33 35 36 37 38 39 40 42 
 46 47 48 49 50 51 53 54 55 56 59 60 
 61 62 63 64 65 66 67 68 69 70 71 72 
 73 74 75 76 77 78 79 80 81 82 84 85 
 68 
 1 2 3 4 5 7 8 9 11 12 13 14 
 15 16 17 18 19 20 21 23 24 26 29 30 
 33 34 36 37 38 39 41 42 43 44 45 46 
 47 48 49 50 52 53 56 59 60 61 62 63 
 64 65 66 67 68 69 70 71 72 73 74 75 
 77 78 79 80 81 83 84 85 
 30 
 1 2 5 6 11 15 16 20 22 29 33 39 
 41 42 45 48 51 53 58 61 62 63 66 72 
 73 74 79 81 82 85 
 54 
 1 2 3 5 6 7 10 12 13 16 17 18 
 19 20 22 23 24 28 29 32 33 35 36 37 
 38 41 43 44 46 47 48 49 50 51 52 53 
 54 56 60 61 62 64 66 69 70 71 72 73 
 74 76 81 82 83 85 
 55 
 2 3 4 5 6 7 8 9 10 11 12 13 
 16 17 18 19 21 22 24 30 32 33 35 37 
 40 42 43 45 47 48 50 51 52 53 54 55 
 56 59 62 63 64 65 67 68 69 70 73 75 
 76 77 79 80 81 82 83 
 3 
 29 46 71 
 14 
 11 21 25 35 39 44 48 49 53 54 55 57 
 69 79 
 84 
 1 2 3 4 5 6 7 8 9 10 11 12 
 13 14 15 16 17 18 19 20 21 22 23 24 
 25 26 27 28 29 30 31 32 33 34 35 36 
 37 38 40 41 42 43 44 45 46 47 48 49 
 50 51 52 53 54 55 56 57 58 59 60 61 
 62 63 64 65 66 67 68 69 70 71 72 73 
 74 75 76 77 78 79 80 81 82 83 84 85 
 6 
 13 15 19 42 47 61 
 10 
 5 33 34 35 41 46 60 61 63 83 
 69 
 1 2 3 4 5 6 7 8 9 10 11 13 
 14 15 16 18 19 20 21 22 23 24 25 26 
 28 29 30 32 33 35 37 39 40 41 44 45 
 46 47 48 49 51 52 53 54 55 56 57 59 
 60 61 62 64 65 66 67 68 69 70 71 72 
 73 74 76 77 79 81 82 84 85 
 2 
 55 65 
 78 
 1 2 3 4 6 7 8 10 11 12 13 14 
 15 16 17 18 19 20 21 23 24 25 27 28 
 29 30 31 32 33 34 35 36 37 38 39 40 
 41 42 44 45 46 47 48 49 50 51 52 53 
 54 55 56 57 58 59 60 61 62 63 64 65 
 66 68 69 70 71 72 73 75 76 77 78 79 
 80 81 82 83 84 85 
 30 
 1 6 10 11 13 14 18 21 23 25 32 34 
 35 36 38 39 43 45 46 50 51 54 55 65 
 67 71 72 73 75 82 
 11 
 8 9 15 17 26 56 63 64 71 82 83 
 58 
 1 2 5 6 9 13 15 16 17 18 19 21 
 23 24 25 26 28 29 30 31 32 33 34 36 
 38 39 41 42 43 44 45 46 47 49 50 51 
 52 53 54 55 57 58 60 61 63 66 69 71 
 72 74 75 78 79 81 82 83 84 85 
 7 
 8 10 11 42 50 57 85 
 80 
 1 2 3 4 5 6 7 8 9 10 12 13 
 14 15 16 17 18 19 20 21 22 23 24 25 
 26 27 28 29 30 31 32 33 34 35 36 37 
 38 39 41 42 43 44 45 46 47 49 50 51 
 52 53 54 55 56 57 59 60 61 62 63 64 
 65 66 67 68 69 71 72 73 74 75 76 77 
 78 79 80 81 82 83 84 85 
 13 
 1 5 7 12 14 17 52 54 56 62 71 74 
 81 
 3 
 52 56 70 
 61 
 2 3 4 7 8 10 11 13 14 16 17 18 
 19 21 22 23 24 25 26 27 28 29 30 31 
 35 36 37 39 40 41 43 44 46 47 48 50 
 51 52 54 55 56 57 58 59 60 61 63 64 
 66 69 70 72 75 76 78 79 80 81 82 84 
 85 
 62 
 1 2 3 4 5 6 7 8 9 11 12 13 
 14 15 17 18 20 21 23 24 26 27 28 30 
 32 34 35 36 37 38 39 40 41 45 48 51 
 52 53 55 56 57 58 59 60 61 62 64 65 
 66 68 71 72 73 75 76 77 78 79 81 82 
 83 85 
 12 
 3 11 19 20 23 32 33 35 70 76 82 85 
 20 
 2 3 16 17 18 23 24 26 27 34 42 48 
 50 56 71 74 75 77 80 82 
 47 
 1 2 5 6 7 9 11 14 17 24 25 26 
 27 28 29 30 31 32 40 42 43 44 46 47 
 48 50 51 53 54 55 56 57 59 61 67 68 
 69 71 73 74 75 78 79 80 81 83 85 
 47 
 1 2 3 4 5 6 7 11 14 15 16 18 
 22 24 25 26 31 33 37 39 40 42 44 45 
 51 54 56 57 58 59 61 62 63 65 66 67 
 68 69 70 73 76 77 78 80 82 83 84 
 75 
 1 2 3 4 5 6 9 10 11 12 13 14 
 15 16 17 18 19 20 21 22 25 26 27 28 
 29 30 31 33 34 36 37 38 39 40 41 42 
 43 44 45 46 47 48 49 50 51 53 55 56 
 57 58 59 60 61 62 63 64 65 67 68 69 
 70 71 72 73 74 75 76 77 78 79 80 81 
 82 83 85 
 52 
 1 3 4 5 8 9 10 11 12 15 16 17 
 23 24 27 29 30 32 34 35 36 37 38 40 
 42 46 48 49 50 51 52 56 57 58 59 60 
 61 62 63 65 66 67 68 69 71 72 74 75 
 76 78 80 83 
 67 
 2 3 4 6 7 8 9 10 12 13 14 15 
 16 17 18 19 22 23 24 25 26 27 28 29 
 30 31 32 33 34 35 36 37 39 41 43 44 
 46 47 48 49 51 53 54 55 56 58 59 60 
 61 62 65 66 67 69 70 71 72 73 76 77 
 78 79 80 81 82 84 85 
 11 
 9 21 27 34 46 50 61 69 77 83 85 
 4 
 5 10 43 54 
 41 
 1 2 3 5 6 7 8 10 14 16 17 19 
 23 24 26 28 31 33 34 37 38 42 44 45 
 50 52 53 55 56 57 58 59 61 62 63 66 
 69 71 76 78 83 
 27 
 4 6 8 10 11 12 14 25 28 30 31 33 
 35 42 46 47 50 52 53 63 68 69 72 74 
 75 80 82 
 72 
 2 3 4 5 6 7 8 11 12 13 14 15 
 16 17 18 19 20 22 23 24 25 26 27 28 
 29 30 31 32 33 34 35 36 37 38 40 41 
 42 44 45 46 47 49 51 52 54 55 56 57 
 58 59 60 61 62 63 65 66 68 71 72 73 
 74 75 76 77 78 79 80 81 82 83 84 85 
 82 
 1 2 3 4 5 6 7 8 9 10 11 12 
 13 14 15 16 17 18 19 20 21 22 23 24 
 25 26 27 28 29 30 31 32 33 35 37 38 
 39 40 41 42 43 44 45 46 47 48 50 51 
 52 53 54 55 56 57 58 59 60 61 62 63 
 64 65 66 67 68 69 70 71 72 73 74 75 
 76 77 78 79 80 81 82 83 84 85 
 53 
 2 4 6 7 8 9 10 13 15 16 17 20 
 21 22 23 24 26 27 28 29 31 33 35 36 
 37 38 40 41 46 47 49 51 54 55 56 57 
 59 60 63 64 65 66 67 68 69 72 74 78 
 80 81 82 83 85 
 5 
 12 27 28 29 63 
 18 
 3 5 6 14 22 26 31 34 43 44 48 51 
 59 66 70 72 73 74 
 67 
 1 2 5 6 7 9 11 12 13 14 16 18 
 19 20 21 22 23 24 26 27 28 29 30 31 
 33 35 36 37 39 40 42 43 44 45 46 47 
 48 49 50 52 53 54 55 56 57 58 59 60 
 61 63 64 65 68 69 70 72 74 75 76 77 
 79 80 81 82 83 84 85 
 56 
 1 2 3 4 8 9 11 12 13 14 15 16 
 17 18 21 22 25 26 27 32 33 36 37 38 
 40 41 42 43 44 45 47 48 49 50 52 54 
 56 57 59 60 62 63 64 66 68 71 72 75 
 76 77 78 80 82 83 84 85 
 11 
 2 26 31 37 40 51 52 53 65 75 78 
 13 
 32 40 41 43 51 54 55 57 59 60 67 72 
 75 
 78 
 1 2 3 4 5 6 7 9 10 11 12 13 
 15 16 17 18 20 21 22 23 24 25 26 27 
 28 29 30 32 33 34 35 36 37 38 39 40 
 41 42 43 44 45 48 49 50 51 52 53 54 
 55 56 57 58 59 60 61 62 63 64 65 66 
 67 68 69 70 71 72 73 74 75 76 77 78 
 79 80 81 82 83 84 
 5 
 24 48 52 66 69 
 84 
 1 2 3 4 5 6 7 8 9 10 11 12 
 13 14 15 16 17 18 19 20 21 22 23 24 
 25 26 27 28 29 30 31 32 33 34 35 36 
 37 38 39 40 41 42 43 44 45 46 47 48 
 49 50 51 52 53 54 55 56 57 58 60 61 
 62 63 64 65 66 67 68 69 70 71 72 73 
 74 75 76 77 78 79 80 81 82 83 84 85 
 17 
 6 20 22 23 28 34 38 39 47 48 51 53 
 55 65 72 73 82 
 51 
 1 2 3 4 5 9 14 16 18 21 22 25 
 27 28 29 30 32 34 35 36 37 38 39 40 
 41 42 43 45 46 47 49 51 52 53 54 55 
 58 59 62 63 64 66 67 70 71 75 76 78 
 82 84 85 
 12 
 13 17 22 33 37 40 45 48 50 70 71 75 
 34 
 5 7 8 9 12 15 17 18 22 24 25 27 
 28 30 34 36 37 43 45 47 49 53 54 57 
 61 62 66 70 71 76 80 83 84 85 
 42 
 2 4 5 6 10 12 18 22 23 24 26 27 
 29 31 33 34 35 36 39 40 42 43 46 47 
 48 49 51 55 56 60 62 64 65 67 68 69 
 71 72 75 79 82 85 
 20 
 2 7 8 11 22 24 25 32 38 39 42 43 
 45 52 53 60 62 65 81 83 
 81 
 1 2 3 4 5 6 8 9 10 11 12 13 
 14 15 16 17 18 19 20 21 22 23 24 25 
 26 27 28 29 30 31 32 33 34 35 36 37 
 38 39 40 41 42 43 44 45 46 47 48 50 
 51 52 53 54 55 56 57 58 59 60 61 62 
 64 65 66 67 68 69 71 72 73 74 75 76 
 77 78 79 80 81 82 83 84 85 
 12 
 5 17 29 35 53 56 61 63 65 66 76 81 
 30 
 1 2 3 4 5 7 10 15 24 25 30 31 
 33 38 43 53 55 56 59 60 62 65 68 72 
 73 74 76 79 83 84 
 63 
 1 2 3 5 7 8 10 11 13 15 17 18 
 20 21 23 24 25 26 27 28 29 32 35 36 
 37 38 39 40 41 42 43 45 46 47 48 50 
 51 52 53 54 55 56 58 59 60 62 63 64 
 66 68 69 70 72 73 74 75 76 78 79 80 
 81 82 83 
 85 
 1 2 3 4 5 6 7 8 9 10 11 12 
 13 14 15 16 17 18 19 20 21 22 23 24 
 25 26 27 28 29 30 31 32 33 34 35 36 
 37 38 39 40 41 42 43 44 45 46 47 48 
 49 50 51 52 53 54 55 56 57 58 59 60 
 61 62 63 64 65 66 67 68 69 70 71 72 
 73 74 75 76 77 78 79 80 81 82 83 84 
 85 
 61 
 2 5 6 8 9 10 11 12 14 16 17 18 
 20 21 23 24 25 26 28 29 32 33 36 37 
 38 40 41 42 45 46 47 48 49 50 51 53 
 54 56 57 58 61 62 63 64 65 66 67 69 
 70 72 74 75 76 77 78 79 80 81 82 83 
 84 
 3 
 59 61 69 
 2 
 44 58 
 77 
 1 2 3 4 5 6 7 8 9 11 12 13 
 14 15 16 17 18 20 21 23 24 25 26 27 
 28 29 30 31 32 33 34 35 36 37 38 39 
 40 41 42 43 44 45 46 47 48 49 50 51 
 52 53 55 56 58 59 60 61 64 65 66 67 
 68 69 70 71 72 73 74 75 76 77 78 79 
 80 81 83 84 85 
 44 
 2 3 5 6 11 14 15 17 18 22 23 24 
 25 26 32 35 37 38 40 45 46 47 48 49 
 50 52 53 54 57 58 59 60 62 64 65 69 
 71 72 73 74 75 76 78 83 
 23 
 1 5 7 9 10 12 16 20 27 29 45 46 
 51 54 57 59 65 72 73 81 82 84 85 
 35 
 5 6 9 10 12 14 16 20 21 22 30 31 
 35 37 38 41 42 46 47 48 50 52 54 56 
 58 59 62 65 66 67 68 72 76 83 85 
 41 
 1 2 7 8 9 11 12 17 18 19 23 30 
 31 34 35 36 37 38 39 42 44 45 46 47 
 50 51 52 55 56 59 61 64 65 66 69 73 
 75 77 78 82 84 
 32 
 1 5 7 9 11 17 21 28 29 31 34 35 
 36 38 39 42 45 47 48 51 52 56 57 60 
 62 63 65 67 68 69 80 83 
 20 
 10 19 22 23 34 35 37 38 40 45 46 51 
 53 57 58 62 69 77 78 81 
 45 
 1 2 6 7 8 10 12 13 14 15 17 18 
 19 20 22 24 25 27 33 34 37 38 40 43 
 45 46 47 49 50 57 58 60 61 66 68 69 
 71 72 73 77 79 80 81 84 85 
 36 
 2 3 6 7 10 13 15 17 20 24 26 27 
 30 32 34 36 39 43 44 46 47 52 54 57 
 59 61 62 63 69 70 72 77 79 83 84 85 
 80 
 1 2 3 4 5 6 7 8 9 10 11 12 
 13 14 16 17 18 19 20 21 22 23 24 25 
 26 27 28 29 30 32 33 34 35 36 37 38 
 39 40 42 43 44 45 46 47 48 49 50 51 
 52 53 54 55 56 57 58 59 60 61 62 63 
 64 65 66 67 68 69 70 72 73 74 76 77 
 78 79 80 81 82 83 84 85 
 71 
 1 2 3 5 6 7 9 10 11 12 13 14 
 15 16 18 20 21 22 23 24 25 26 27 28 
 29 30 31 32 33 34 35 36 37 38 39 40 
 41 44 45 46 47 48 49 50 51 52 55 56 
 57 58 59 60 63 64 66 67 69 70 71 72 
 73 75 76 77 78 79 81 82 83 84 85 
 4 
 21 48 58 76 
 56 
 2 3 6 7 9 10 15 16 18 21 22 23 
 24 25 26 27 29 31 32 33 34 35 36 38 
 41 42 43 44 45 50 51 52 53 54 55 56 
 57 59 61 62 63 64 65 66 67 70 71 72 
 73 75 77 78 80 83 84 85 
 41 
 3 7 8 15 17 18 19 20 21 23 24 25 
 26 27 28 29 32 34 35 36 40 41 44 50 
 51 56 59 60 61 64 66 67 70 72 73 74 
 75 76 77 78 84 
 42 
 2 3 4 6 8 9 12 14 15 16 18 20 
 23 24 25 26 28 32 34 35 36 39 40 41 
 42 46 48 49 55 56 62 66 70 71 72 73 
 76 77 78 79 84 85 
 26 
 1 7 8 12 15 18 22 23 24 27 30 34 
 38 40 44 45 50 52 54 56 58 61 63 78 
 79 81 
 85 
 1 2 3 4 5 6 7 8 9 10 11 12 
 13 14 15 16 17 18 19 20 21 22 23 24 
 25 26 27 28 29 30 31 32 33 34 35 36 
 37 38 39 40 41 42 43 44 45 46 47 48 
 49 50 51 52 53 54 55 56 57 58 59 60 
 61 62 63 64 65 66 67 68 69 70 71 72 
 73 74 75 76 77 78 79 80 81 82 83 84 
 85 
 81 
 1 2 3 4 5 6 7 8 9 10 11 12 
 13 14 15 16 17 18 20 21 22 23 24 25 
 26 27 29 30 31 32 33 34 35 36 37 38 
 39 40 41 42 43 44 46 47 48 49 50 51 
 52 53 54 55 56 57 58 59 60 61 62 63 
 64 65 66 67 68 69 70 71 72 73 74 76 
 77 78 79 80 81 82 83 84 85 
 69 
 1 2 3 4 5 6 7 10 11 12 14 15 
 16 17 18 19 20 22 23 24 26 27 29 30 
 31 32 33 34 35 37 38 39 40 41 42 43 
 45 46 48 49 50 51 52 57 59 60 61 62 
 63 64 65 66 67 68 69 70 71 72 73 74 
 75 76 77 78 79 80 82 84 85 
 36 
 1 2 9 10 12 15 19 20 21 23 24 26 
 27 28 29 32 36 37 40 41 46 47 48 50 
 51 53 54 58 64 70 73 75 77 78 80 81 
 31 
 3 5 6 11 12 16 19 22 32 36 37 39 
 44 45 46 50 51 53 54 56 57 58 59 61 
 63 70 71 77 79 84 85 
 83 
 1 2 3 4 5 6 7 8 9 10 11 12 
 13 14 15 16 17 18 19 20 21 22 23 24 
 25 26 27 28 29 30 31 32 33 34 35 36 
 37 38 39 40 41 42 43 44 45 46 47 48 
 49 50 51 53 54 55 56 57 58 60 61 62 
 63 64 65 66 67 68 69 70 71 72 73 74 
 75 76 77 78 79 80 81 82 83 84 85 
 51 
 1 2 3 4 5 7 8 9 11 13 14 15 
 18 20 21 23 25 26 28 29 31 34 35 36 
 37 38 39 40 42 43 45 49 51 52 55 57 
 59 62 63 64 69 71 72 73 74 75 77 78 
 81 82 84 
 44 
 4 9 11 12 13 15 18 20 22 23 24 28 
 30 31 32 34 35 38 39 41 43 44 45 50 
 52 53 54 56 58 59 63 64 66 67 69 70 
 72 74 75 76 77 78 83 85 
 65 
 1 2 3 4 6 7 8 10 11 12 13 15 
 19 20 21 22 23 24 25 26 27 28 30 32 
 33 34 36 37 38 41 42 44 45 48 49 50 
 51 52 53 54 55 56 57 58 61 62 64 65 
 66 67 69 70 71 72 73 74 75 76 77 80 
 81 82 83 84 85 
 40 
 1 3 4 6 9 12 18 20 21 22 23 27 
 28 29 31 36 37 38 40 42 43 45 46 50 
 52 53 54 55 57 59 60 64 67 69 75 76 
 78 79 81 85 
 85 
 1 2 3 4 5 6 7 8 9 10 11 12 
 13 14 15 16 17 18 19 20 21 22 23 24 
 25 26 27 28 29 30 31 32 33 34 35 36 
 37 38 39 40 41 42 43 44 45 46 47 48 
 49 50 51 52 53 54 55 56 57 58 59 60 
 61 62 63 64 65 66 67 68 69 70 71 72 
 73 74 75 76 77 78 79 80 81 82 83 84 
 85 
 64 
 1 3 6 7 8 9 11 13 14 15 16 17 
 18 20 22 23 24 25 26 27 28 29 32 33 
 34 35 36 37 38 39 40 42 44 45 46 48 
 49 50 51 52 53 55 56 57 58 59 60 61 
 62 63 66 67 68 70 71 72 74 76 77 79 
 80 81 83 85 
 51 
 1 2 4 7 8 9 11 12 17 18 19 20 
 21 22 25 29 30 31 34 35 40 41 43 44 
 45 47 48 49 50 51 52 54 55 56 59 60 
 61 63 64 65 66 68 70 72 73 74 75 77 
 80 82 83 
 24 
 2 3 5 9 13 15 17 18 24 31 32 40 
 44 45 48 49 52 53 54 61 62 65 79 83 
 24 
 3 9 12 15 20 22 23 25 26 29 34 35 
 39 42 44 46 50 56 61 63 79 80 81 84 
 56 
 3 4 5 8 10 12 13 14 15 16 17 19 
 20 21 22 24 25 26 27 28 29 30 32 33 
 34 36 37 41 42 43 44 46 47 49 51 52 
 55 56 57 58 59 60 62 63 66 70 71 72 
 73 75 77 80 82 83 84 85 
 13 
 9 23 32 35 38 43 45 58 60 70 73 80 
 85 
 22 
 8 10 11 12 15 19 23 27 30 31 35 44 
 45 60 63 64 69 71 72 73 77 78 
 76 
 1 2 3 4 6 7 8 9 10 12 13 14 
 15 16 17 18 19 21 22 23 24 25 26 27 
 30 31 32 33 34 35 36 37 38 40 42 43 
 44 45 46 47 48 49 50 51 53 54 55 56 
 57 58 59 60 61 62 63 64 65 66 67 68 
 69 70 71 72 74 75 76 77 78 79 80 81 
 82 83 84 85 
 84 
 1 2 3 4 5 6 7 8 9 10 11 12 
 13 14 15 16 17 18 19 20 21 22 23 24 
 25 27 28 29 30 31 32 33 34 35 36 37 
 38 39 40 41 42 43 44 45 46 47 48 49 
 50 51 52 53 54 55 56 57 58 59 60 61 
 62 63 64 65 66 67 68 69 70 71 72 73 
 74 75 76 77 78 79 80 81 82 83 84 85 
 84 
 1 2 3 4 5 6 7 8 9 10 11 12 
 13 14 15 16 17 18 19 20 21 22 23 24 
 25 26 27 28 29 30 31 32 33 34 35 36 
 37 38 39 40 41 42 43 44 45 46 47 48 
 49 50 51 52 53 54 55 56 57 58 59 60 
 61 63 64 65 66 67 68 69 70 71 72 73 
 74 75 76 77 78 79 80 81 82 83 84 85 
 27 
 7 8 12 19 20 21 24 26 33 35 36 38 
 40 49 56 59 67 68 70 71 72 73 74 78 
 79 82 83 
 49 
 1 2 5 10 11 12 14 16 17 18 20 21 
 22 23 24 26 27 28 30 31 34 35 36 39 
 40 41 44 46 47 48 49 55 56 57 58 59 
 61 66 69 70 71 72 73 75 78 79 81 83 
 85 
 42 
 1 2 3 8 10 11 13 16 17 18 20 21 
 22 23 25 29 32 33 35 36 37 41 42 43 
 47 50 58 59 60 61 62 65 66 68 69 70 
 71 74 78 79 80 83 
 41 
 2 4 12 15 18 23 24 25 27 29 33 36 
 37 38 39 40 43 44 48 49 54 56 58 59 
 60 63 64 65 67 69 70 71 72 73 74 77 
 78 80 81 82 85 
 85 
 1 2 3 4 5 6 7 8 9 10 11 12 
 13 14 15 16 17 18 19 20 21 22 23 24 
 25 26 27 28 29 30 31 32 33 34 35 36 
 37 38 39 40 41 42 43 44 45 46 47 48 
 49 50 51 52 53 54 55 56 57 58 59 60 
 61 62 63 64 65 66 67 68 69 70 71 72 
 73 74 75 76 77 78 79 80 81 82 83 84 
 85 
 43 
 1 3 4 7 9 10 11 13 14 16 17 19 
 27 28 29 31 36 37 39 40 43 44 45 49 
 50 51 53 54 55 58 62 64 65 68 69 70 
 72 79 80 81 82 83 85 
 71 
 1 3 4 6 7 8 9 10 11 13 15 16 
 17 18 19 20 21 22 24 25 26 27 28 29 
 30 31 32 33 34 36 37 38 39 40 41 42 
 44 45 46 47 48 49 50 51 52 53 54 56 
 57 58 59 60 61 63 64 65 66 67 68 69 
 71 72 73 75 76 80 81 82 83 84 85 
 70 
 1 2 3 4 6 7 8 9 10 11 12 14 
 15 17 19 20 21 24 25 26 27 28 29 30 
 31 32 33 35 36 37 38 40 41 43 44 45 
 46 47 48 49 50 51 53 54 55 56 57 58 
 59 60 61 63 64 66 67 69 70 71 72 73 
 74 75 78 79 80 81 82 83 84 85 
 74 
 2 3 4 5 6 7 8 9 10 12 13 14 
 15 16 17 18 19 20 21 22 23 24 25 26 
 28 29 30 31 32 33 35 36 37 38 39 40 
 41 42 43 44 45 46 48 49 50 51 53 55 
 56 57 58 59 60 61 62 63 64 65 67 68 
 69 70 72 73 74 75 76 78 79 80 81 82 
 83 85 
 62 
 3 4 5 7 8 11 12 13 15 16 17 18 
 19 20 21 22 24 25 26 27 31 32 33 35 
 36 37 39 41 42 43 47 48 49 50 51 52 
 53 54 56 57 59 61 62 64 65 66 67 69 
 70 71 73 74 75 76 77 78 79 80 81 82 
 84 85 
 27 
 7 19 21 23 26 36 38 45 46 48 50 52 
 55 57 58 60 61 62 67 71 72 74 78 79 
 81 82 85 
 61 
 2 3 4 5 6 7 8 12 13 14 17 18 
 20 21 22 23 25 28 29 30 31 32 34 35 
 36 37 39 40 41 42 43 44 45 46 48 49 
 50 51 52 54 55 56 57 58 60 61 62 63 
 65 68 69 70 71 72 74 75 76 80 81 84 
 85 
 48 
 2 3 4 7 8 9 10 11 12 15 18 20 
 22 27 30 31 33 35 37 38 41 42 43 44 
 46 47 48 50 53 55 56 57 59 61 62 63 
 64 65 66 67 69 72 74 75 81 82 83 85 
 34 
 2 5 8 9 10 18 19 22 24 25 28 29 
 30 31 36 37 39 40 41 46 48 49 50 55 
 56 58 60 63 64 68 71 78 82 84 
 61 
 1 2 4 5 6 7 9 10 11 13 17 18 
 19 20 21 22 23 24 25 27 29 30 31 32 
 33 34 38 41 42 44 46 48 49 50 51 52 
 53 55 56 57 58 59 60 61 62 63 64 67 
 68 70 71 72 73 75 76 77 78 79 80 81 
 85 
 64 
 1 2 3 4 5 6 7 8 9 10 11 14 
 16 17 18 20 23 24 25 26 27 28 29 30 
 31 34 35 36 37 38 40 41 42 43 44 45 
 47 48 49 51 52 53 56 57 60 61 62 63 
 64 66 67 68 69 72 73 74 76 77 78 79 
 80 82 83 85 
 84 
 1 2 3 4 5 6 7 8 9 10 11 12 
 13 14 15 17 18 19 20 21 22 23 24 25 
 26 27 28 29 30 31 32 33 34 35 36 37 
 38 39 40 41 42 43 44 45 46 47 48 49 
 50 51 52 53 54 55 56 57 58 59 60 61 
 62 63 64 65 66 67 68 69 70 71 72 73 
 74 75 76 77 78 79 80 81 82 83 84 85 
 55 
 2 3 5 10 12 13 14 15 16 18 19 23 
 25 28 30 31 32 34 35 36 37 38 39 41 
 42 43 44 45 46 47 49 50 52 53 54 55 
 56 57 58 59 60 61 64 65 67 69 70 71 
 72 73 74 76 80 83 84 
 34 
 4 6 7 8 10 11 12 14 15 20 21 23 
 25 32 36 38 42 43 47 52 55 58 64 65 
 66 68 73 75 76 77 79 82 83 85 
 37 
 1 4 6 7 8 12 14 18 19 23 26 27 
 28 29 31 32 34 36 37 38 43 47 49 52 
 53 63 65 67 69 71 73 75 76 78 79 83 
 85 
 64 
 1 2 4 6 7 8 9 12 13 14 15 16 
 18 19 21 22 23 26 27 28 29 31 32 33 
 34 36 37 41 42 44 45 46 47 48 49 50 
 52 53 55 56 57 58 59 60 61 62 63 64 
 65 66 67 69 70 71 72 74 75 76 77 78 
 79 83 84 85 
 43 
 2 3 4 5 8 11 14 15 16 17 20 21 
 22 26 31 33 36 41 42 43 44 46 47 49 
 50 51 52 55 56 64 66 67 68 71 74 75 
 77 78 79 80 81 82 85 
 81 
 1 2 3 4 5 6 7 8 9 10 11 12 
 13 14 15 16 17 18 19 20 22 23 24 25 
 26 28 29 30 31 32 33 34 35 36 37 38 
 39 40 41 42 43 44 45 46 47 48 49 50 
 51 52 53 54 55 56 57 58 59 60 61 62 
 63 65 66 67 68 69 70 71 72 73 74 75 
 76 78 79 80 81 82 83 84 85 
 77 
 1 2 3 5 6 7 8 9 10 11 12 13 
 14 15 16 17 18 19 20 21 22 23 24 25 
 26 27 28 29 30 31 32 33 34 35 36 37 
 38 39 40 42 43 44 45 46 47 48 49 51 
 53 54 55 56 57 58 59 60 61 62 63 64 
 65 67 68 69 70 71 72 73 74 75 76 78 
 80 81 82 83 84 
 71 
 1 2 3 4 5 6 7 8 9 10 11 12 
 14 15 16 17 18 19 20 22 25 26 27 28 
 30 31 32 33 34 35 37 38 39 40 41 44 
 47 48 50 52 53 54 55 56 57 59 60 61 
 62 63 64 65 66 67 68 69 70 71 72 73 
 74 76 77 78 79 80 81 82 83 84 85 
 4 
 27 54 74 75 
 11 
 3 10 18 28 39 40 43 46 53 62 82 
 72 
 1 2 3 4 5 6 7 8 9 10 11 12 
 13 14 15 16 17 18 19 21 22 23 24 26 
 27 28 30 31 32 33 34 35 36 39 40 41 
 42 43 46 47 48 49 50 51 52 53 54 57 
 58 59 60 61 62 63 65 66 67 68 70 71 
 73 74 75 76 77 78 79 80 81 82 83 85 
 44 
 2 4 6 7 8 9 12 14 17 18 19 20 
 21 31 32 33 35 37 42 43 44 45 46 47 
 48 50 51 55 56 57 59 67 68 70 72 75 
 77 78 79 81 82 83 84 85 
 54 
 1 3 4 5 6 9 10 12 14 16 17 18 
 20 22 23 25 26 29 31 32 33 34 35 37 
 39 40 41 42 43 44 46 47 48 49 50 51 
 52 53 55 56 58 59 64 68 69 70 71 72 
 73 76 77 78 79 85 
 21 
 2 4 7 11 13 16 24 27 28 30 36 41 
 43 49 53 61 69 74 76 80 83 
 68 
 1 2 3 4 6 7 8 9 10 12 14 16 
 17 18 20 21 22 23 26 27 28 29 30 31 
 32 33 35 36 37 38 39 40 42 43 44 45 
 46 47 48 49 50 52 54 55 57 58 60 61 
 62 63 64 65 67 68 69 71 73 74 75 76 
 77 78 79 80 82 83 84 85 
 24 
 3 4 5 9 14 15 17 22 25 26 28 31 
 33 37 54 55 57 62 63 68 70 73 80 84 
 57 
 1 4 5 6 7 8 9 11 13 14 15 16 
 17 18 20 22 23 24 29 30 31 32 37 38 
 39 40 41 43 45 46 49 52 53 54 55 56 
 57 60 61 62 64 65 66 69 70 71 72 73 
 74 77 78 79 80 81 82 83 84 
 45 
 1 3 5 6 8 12 13 14 17 18 20 21 
 22 28 29 31 32 33 34 35 37 38 39 43 
 44 45 48 49 51 55 56 57 58 60 64 65 
 66 67 76 77 79 81 82 84 85 
 29 
 1 5 10 12 13 20 22 23 24 27 38 43 
 44 47 52 53 56 57 61 62 64 65 69 70 
 71 80 82 83 85 
 78 
 1 2 3 4 5 7 8 9 10 11 12 13 
 15 17 18 19 21 22 23 24 25 26 28 29 
 30 31 32 33 34 35 36 37 38 39 40 41 
 42 43 44 45 46 47 48 49 50 51 52 53 
 55 56 57 58 59 60 61 62 63 64 65 66 
 67 68 69 70 71 72 73 74 75 76 77 78 
 79 81 82 83 84 85 
 66 
 1 2 3 4 6 8 9 10 11 12 13 14 
 15 17 20 21 22 24 25 26 27 28 29 30 
 31 32 33 34 35 36 38 39 40 41 42 43 
 45 46 47 48 52 53 54 55 56 57 58 59 
 64 66 68 69 70 71 72 73 74 75 76 77 
 78 79 80 82 83 84 
 7 
 2 23 36 56 65 68 76 
 50 
 1 2 4 7 8 12 14 15 16 17 18 19 
 21 25 26 27 29 31 32 33 34 35 36 37 
 38 39 42 44 45 46 48 50 51 52 56 57 
 58 60 63 67 69 70 71 72 74 76 77 79 
 80 85 
 48 
 5 6 9 10 12 13 17 19 23 24 25 26 
 27 29 30 32 33 35 36 40 41 42 43 44 
 46 47 48 49 50 51 52 53 60 62 66 67 
 68 69 71 72 73 75 76 78 82 83 84 85 
 55 
 1 2 5 6 7 9 10 11 12 13 15 16 
 17 18 21 24 26 28 29 30 31 33 34 35 
 36 38 40 41 44 46 47 49 50 51 52 53 
 54 57 58 60 61 62 66 67 68 69 70 71 
 74 75 77 79 80 84 85 
 37 
 3 4 5 9 11 12 16 17 19 23 29 30 
 31 35 36 42 43 47 48 49 51 52 53 56 
 57 60 63 67 68 71 72 73 75 79 82 83 
 84 
 40 
 1 2 4 5 6 7 13 16 17 19 20 23 
 24 26 28 29 35 37 38 39 42 45 50 52 
 54 55 57 58 64 67 69 72 74 75 76 77 
 80 81 82 84 
 27 
 1 3 9 13 23 25 26 31 32 35 44 45 
 47 49 55 57 61 63 64 67 70 72 75 77 
 80 81 83 
 28 
 1 8 10 13 15 18 21 22 26 27 28 34 
 41 42 45 47 48 56 57 65 68 70 72 75 
 80 82 83 84 
 